GLPSOL: GLPK LP/MIP Solver, v4.65
Parameter(s) specified in the command line:
 -m production-orders.mod -d production-orders-C.dat --log production-orders-C-nomip.log
 --nomip
Reading model section from production-orders.mod...
68 lines were read
Reading data section from production-orders-C.dat...
70 lines were read
Checking (line 6)...
Generating Material_Balance_Production...
Generating Material_Balance_Orders...
Generating Material_Balance_Total_Raws_1...
Generating Material_Balance_Total_Raws_2...
Generating Material_Balance_Total_Products_1...
Generating Material_Balance_Total_Products_2...
Generating Total_Costs_Calc...
Generating Total_Revenue_Calc...
Generating Profit_Calc...
Generating Profit...
Model has been successfully generated
GLPK Simplex Optimizer, v4.65
32 rows, 43 columns, 112 non-zeros
Preprocessing...
29 rows, 33 columns, 94 non-zeros
Scaling...
 A: min|aij| =  1.300e-02  max|aij| =  4.000e+05  ratio =  3.077e+07
GM: min|aij| =  1.930e-01  max|aij| =  5.182e+00  ratio =  2.686e+01
EQ: min|aij| =  4.591e-02  max|aij| =  1.000e+00  ratio =  2.178e+01
Constructing initial basis...
Size of triangular part is 29
      0: obj =  -0.000000000e+00 inf =   1.214e+04 (3)
      8: obj =  -1.575313137e+03 inf =   0.000e+00 (0)
*    14: obj =   2.139700000e+04 inf =   0.000e+00 (0)
OPTIMAL LP SOLUTION FOUND
Time used:   0.0 secs
Memory used: 0.2 Mb (187971 bytes)
Total Costs: 12163
Total Revenue: 33560
Profit: 21397
Acquiring order Ord1: 1x
Acquiring order Ord2: 0x
Acquiring order Ord3: 30x
Volume of recipe MakeP1: 0
Volume of recipe MakeP2: 550
Volume of recipe MakeP3: 0
Volume of recipe Comp1: 90
Volume of recipe Comp2: 10
Raw materials (orders + market -> production + leftover):
Consumption of raw A: 35700 + 13910 -> 49610 + 0 (total: 49610)
Consumption of raw B: 15600 + 103900 -> 119500 + 0 (total: 119500)
Consumption of raw C: 540000 + 460000 -> 1e+06 + 0 (total: 1e+06)
Consumption of raw D: 750 + 0 -> 750 + 0 (total: 750)
Products (production -> orders + market):
Production of product P1: 90 -> 90 + 0 (total: 90)
Production of product P2: 650 -> 120 + 530 (total: 650)
Production of product P3: 10 -> 0 + 10 (total: 10)
Model has been successfully processed
